    Maximize 
    obj: x1 + 7 x2 + 5 x3 + x4 + 13 x5 + 1 x6 + x8 + 2 x9

    Subject To
    x1 + x2 + x5 +  x3 + x6 + 4 x4 + 5 x7 <= 700
    x2 + x5 - 2 x3 - 2 x6 <= 900
    10 x1 + 12 x2 + 13 x3 + 8 x4 <= 1500
    x1 + x5 + 3 x6 + 2 x7 <= 1500
    x9 + x8 <= 500

    Bounds
    x1 => 0
    x2 => 0
    x3 => 0
    x4 => 0
    x5 => 0
    x6 => 0
    x7 => 0
    x8 => 0
    x9 => 0
    

    Generals
    x1
    x2
    x3
    x4
    x5
    x6
    x7
    x8
    x9
	
	End